p cnf 600 444
d 0.875 0.125
d 0.875 0.125
d 0.875 0.125
d 0.875 0.125
d 0.875 0.125
d 0.875 0.125
d 0.875 0.125
d 0.875 0.125
d 0.875 0.125
d 0.875 0.125
d 0.875 0.125
d 0.875 0.125
d 0.875 0.125
d 0.875 0.125
d 0.875 0.125
d 0.875 0.125
d 0.875 0.125
d 0.875 0.125
d 0.875 0.125
d 0.875 0.125
d 0.875 0.125
d 0.875 0.125
d 0.875 0.125
d 0.875 0.125
d 0.875 0.125
d 0.875 0.125
d 0.875 0.125
d 0.875 0.125
d 0.875 0.125
d 0.875 0.125
d 0.875 0.125
d 0.875 0.125
d 0.875 0.125
d 0.875 0.125
d 0.875 0.125
d 0.875 0.125
d 0.875 0.125
d 0.875 0.125
d 0.875 0.125
d 0.875 0.125
d 0.875 0.125
d 0.875 0.125
d 0.875 0.125
d 0.875 0.125
d 0.875 0.125
d 0.875 0.125
d 0.875 0.125
d 0.875 0.125
d 0.875 0.125
d 0.875 0.125
d 0.875 0.125
d 0.875 0.125
d 0.875 0.125
d 0.875 0.125
d 0.875 0.125
d 0.875 0.125
d 0.875 0.125
d 0.875 0.125
d 0.875 0.125
d 0.875 0.125
d 0.875 0.125
d 0.875 0.125
d 0.875 0.125
d 0.875 0.125
d 0.875 0.125
d 0.875 0.125
d 0.875 0.125
d 0.875 0.125
d 0.875 0.125
d 0.875 0.125
d 0.875 0.125
d 0.875 0.125
d 0.875 0.125
d 0.875 0.125
d 0.875 0.125
d 0.875 0.125
d 0.875 0.125
d 0.875 0.125
d 0.875 0.125
d 0.875 0.125
d 0.875 0.125
d 0.875 0.125
d 0.875 0.125
d 0.875 0.125
d 0.875 0.125
d 0.875 0.125
d 0.875 0.125
d 0.875 0.125
d 0.875 0.125
d 0.875 0.125
d 0.875 0.125
d 0.875 0.125
d 0.875 0.125
d 0.875 0.125
d 0.875 0.125
d 0.875 0.125
d 0.875 0.125
d 0.875 0.125
d 0.875 0.125
d 0.875 0.125
d 0.875 0.125
d 0.875 0.125
d 0.875 0.125
d 0.875 0.125
d 0.875 0.125
d 0.875 0.125
d 0.875 0.125
d 0.875 0.125
d 0.875 0.125
d 0.875 0.125
d 0.875 0.125
d 0.875 0.125
d 0.875 0.125
d 0.875 0.125
d 0.875 0.125
d 0.875 0.125
d 0.875 0.125
d 0.875 0.125
d 0.875 0.125
d 0.875 0.125
d 0.875 0.125
d 0.875 0.125
d 0.875 0.125
d 0.875 0.125
d 0.875 0.125
d 0.875 0.125
d 0.875 0.125
d 0.875 0.125
d 0.875 0.125
d 0.875 0.125
d 0.875 0.125
d 0.875 0.125
d 0.875 0.125
d 0.875 0.125
d 0.875 0.125
d 0.875 0.125
d 0.875 0.125
d 0.875 0.125
d 0.875 0.125
d 0.875 0.125
d 0.875 0.125
d 0.875 0.125
d 0.875 0.125
d 0.875 0.125
d 0.875 0.125
d 0.875 0.125
d 0.875 0.125
d 0.875 0.125
d 0.875 0.125
d 0.875 0.125
d 0.875 0.125
d 0.875 0.125
d 0.875 0.125
d 0.875 0.125
d 0.875 0.125
d 0.875 0.125
d 0.875 0.125
d 0.875 0.125
d 0.875 0.125
d 0.875 0.125
d 0.875 0.125
d 0.875 0.125
d 0.875 0.125
d 0.875 0.125
d 0.875 0.125
d 0.875 0.125
d 0.875 0.125
d 0.875 0.125
d 0.875 0.125
d 0.875 0.125
d 0.875 0.125
d 0.875 0.125
d 0.875 0.125
d 0.875 0.125
d 0.875 0.125
d 0.875 0.125
d 0.875 0.125
d 0.875 0.125
d 0.875 0.125
d 0.875 0.125
d 0.875 0.125
d 0.875 0.125
d 0.875 0.125
d 0.875 0.125
d 0.875 0.125
d 0.875 0.125
d 0.875 0.125
d 0.875 0.125
d 0.875 0.125
d 0.875 0.125
d 0.875 0.125
d 0.875 0.125
d 0.875 0.125
d 0.875 0.125
d 0.875 0.125
d 0.875 0.125
d 0.875 0.125
d 0.875 0.125
d 0.875 0.125
d 0.875 0.125
d 0.875 0.125
d 0.875 0.125
d 0.875 0.125
d 0.875 0.125
d 0.875 0.125
d 0.875 0.125
d 0.875 0.125
d 0.875 0.125
d 0.875 0.125
d 0.875 0.125
d 0.875 0.125
d 0.875 0.125
d 0.875 0.125
d 0.875 0.125
d 0.875 0.125
d 0.875 0.125
d 0.875 0.125
d 0.875 0.125
d 0.875 0.125
d 0.875 0.125
d 0.875 0.125
564
-526
468 -578 -0
578 -468 -0
566 -485 -2
485 -566 -2
592 -447 -4
447 -592 -4
577 -580 -6
580 -577 -6
590 -485 -8
485 -590 -8
550 -484 -10
484 -550 -10
487 -536 -12
536 -487 -12
576 -593 -14
593 -576 -14
476 -509 -16
509 -476 -16
495 -563 -18
563 -495 -18
548 -583 -20
583 -548 -20
547 -545 -22
545 -547 -22
466 -449 -24
449 -466 -24
487 -442 -26
442 -487 -26
525 -460 -28
460 -525 -28
463 -585 -30
585 -463 -30
550 -508 -32
508 -550 -32
584 -572 -34
572 -584 -34
525 -472 -36
472 -525 -36
476 -478 -38
478 -476 -38
587 -552 -40
552 -587 -40
559 -558 -42
558 -559 -42
453 -451 -44
451 -453 -44
463 -494 -46
494 -463 -46
486 -505 -48
505 -486 -48
586 -447 -50
447 -586 -50
541 -542 -52
542 -541 -52
594 -467 -54
467 -594 -54
568 -496 -56
496 -568 -56
537 -549 -58
549 -537 -58
545 -490 -60
490 -545 -60
550 -458 -62
458 -550 -62
557 -547 -64
547 -557 -64
515 -514 -66
514 -515 -66
510 -462 -68
462 -510 -68
588 -552 -70
552 -588 -70
569 -545 -72
545 -569 -72
537 -506 -74
506 -537 -74
473 -559 -76
559 -473 -76
458 -574 -78
574 -458 -78
538 -521 -80
521 -538 -80
451 -489 -82
489 -451 -82
520 -579 -84
579 -520 -84
541 -542 -86
542 -541 -86
466 -560 -88
560 -466 -88
458 -490 -90
490 -458 -90
458 -571 -92
571 -458 -92
512 -572 -94
572 -512 -94
468 -531 -96
531 -468 -96
508 -503 -98
503 -508 -98
447 -449 -100
449 -447 -100
446 -578 -102
578 -446 -102
454 -448 -104
448 -454 -104
525 -559 -106
559 -525 -106
560 -577 -108
577 -560 -108
471 -497 -110
497 -471 -110
567 -580 -112
580 -567 -112
578 -498 -114
498 -578 -114
525 -472 -116
472 -525 -116
509 -574 -118
574 -509 -118
504 -563 -120
563 -504 -120
458 -597 -122
597 -458 -122
477 -558 -124
558 -477 -124
459 -568 -126
568 -459 -126
457 -528 -128
528 -457 -128
526 -487 -130
487 -526 -130
466 -481 -132
481 -466 -132
445 -528 -134
528 -445 -134
508 -557 -136
557 -508 -136
446 -593 -138
593 -446 -138
456 -461 -140
461 -456 -140
539 -568 -142
568 -539 -142
595 -588 -144
588 -595 -144
465 -513 -146
513 -465 -146
448 -520 -148
520 -448 -148
442 -597 -150
597 -442 -150
586 -532 -152
532 -586 -152
465 -501 -154
501 -465 -154
567 -533 -156
533 -567 -156
488 -514 -158
514 -488 -158
477 -599 -160
599 -477 -160
591 -589 -162
589 -591 -162
554 -446 -164
446 -554 -164
541 -542 -166
542 -541 -166
586 -466 -168
466 -586 -168
586 -590 -170
590 -586 -170
525 -508 -172
508 -525 -172
586 -569 -174
569 -586 -174
586 -584 -176
584 -586 -176
496 -519 -178
519 -496 -178
598 -594 -180
594 -598 -180
464 -571 -182
571 -464 -182
528 -563 -184
563 -528 -184
538 -599 -186
599 -538 -186
511 -562 -188
562 -511 -188
469 -513 -190
513 -469 -190
526 -487 -192
487 -526 -192
558 -487 -194
487 -558 -194
495 -488 -196
488 -495 -196
592 -501 -198
501 -592 -198
504 -487 -200
487 -504 -200
471 -565 -202
565 -471 -202
468 -498 -204
498 -468 -204
532 -547 -206
547 -532 -206
525 -511 -208
511 -525 -208
555 -470 -210
470 -555 -210
453 -451 -212
451 -453 -212
525 -472 -214
472 -525 -214
487 -509 -216
509 -487 -216
537 -570 -218
570 -537 -218
478 -597 -220
597 -478 -220
555 -554 -222
554 -555 -222
584 -501 -224
501 -584 -224
496 -467 -226
467 -496 -226
454 -520 -228
520 -454 -228
553 -448 -230
448 -553 -230
553 -500 -232
500 -553 -232
588 -497 -234
497 -588 -234
490 -571 -236
571 -490 -236
546 -540 -238
540 -546 -238
512 -590 -240
590 -512 -240
556 -497 -242
497 -556 -242
581 -585 -244
585 -581 -244
592 -581 -246
581 -592 -246
489 -499 -248
499 -489 -248
561 -564 -250
564 -561 -250
489 -548 -252
548 -489 -252
463 -585 -254
585 -463 -254
494 -541 -256
541 -494 -256
590 -450 -258
450 -590 -258
477 -599 -260
599 -477 -260
502 -552 -262
552 -502 -262
523 -491 -264
491 -523 -264
462 -522 -266
522 -462 -266
446 -578 -268
578 -446 -268
525 -472 -270
472 -525 -270
586 -560 -272
560 -586 -272
443 -540 -274
540 -443 -274
503 -448 -276
448 -503 -276
557 -547 -278
547 -557 -278
547 -479 -280
479 -547 -280
562 -521 -282
521 -562 -282
496 -519 -284
519 -496 -284
525 -460 -286
460 -525 -286
546 -564 -288
564 -546 -288
470 -569 -290
569 -470 -290
561 -516 -292
516 -561 -292
529 -482 -294
482 -529 -294
570 -517 -296
517 -570 -296
590 -547 -298
547 -590 -298
469 -561 -300
561 -469 -300
536 -527 -302
527 -536 -302
519 -467 -304
467 -519 -304
550 -557 -306
557 -550 -306
455 -531 -308
531 -455 -308
443 -546 -310
546 -443 -310
464 -545 -312
545 -464 -312
533 -568 -314
568 -533 -314
444 -549 -316
549 -444 -316
484 -508 -318
508 -484 -318
446 -496 -320
496 -446 -320
487 -550 -322
550 -487 -322
522 -513 -324
513 -522 -324
592 -581 -326
581 -592 -326
555 -517 -328
517 -555 -328
566 -514 -330
514 -566 -330
527 -566 -332
566 -527 -332
588 -565 -334
565 -588 -334
523 -541 -336
541 -523 -336
581 -517 -338
517 -581 -338
466 -449 -340
449 -466 -340
453 -577 -342
577 -453 -342
573 -479 -344
479 -573 -344
533 -452 -346
452 -533 -346
564 -595 -348
595 -564 -348
496 -474 -350
474 -496 -350
512 -572 -352
572 -512 -352
496 -486 -354
486 -496 -354
558 -487 -356
487 -558 -356
518 -500 -358
500 -518 -358
523 -524 -360
524 -523 -360
575 -448 -362
448 -575 -362
543 -500 -364
500 -543 -364
530 -580 -366
580 -530 -366
581 -585 -368
585 -581 -368
596 -485 -370
485 -596 -370
541 -517 -372
517 -541 -372
496 -589 -374
589 -496 -374
502 -546 -376
546 -502 -376
497 -565 -378
565 -497 -378
547 -581 -380
581 -547 -380
444 -570 -382
570 -444 -382
556 -462 -384
462 -556 -384
486 -589 -386
589 -486 -386
465 -466 -388
466 -465 -388
546 -540 -390
540 -546 -390
520 -461 -392
461 -520 -392
453 -451 -394
451 -453 -394
469 -512 -396
512 -469 -396
463 -460 -398
460 -463 -398
526 -487 -400
487 -526 -400
451 -539 -402
539 -451 -402
591 -455 -404
455 -591 -404
463 -460 -406
460 -463 -406
483 -506 -408
506 -483 -408
496 -519 -410
519 -496 -410
483 -524 -412
524 -483 -412
476 -442 -414
442 -476 -414
478 -574 -416
574 -478 -416
492 -534 -418
534 -492 -418
541 -461 -420
461 -541 -420
548 -554 -422
554 -548 -422
499 -583 -424
583 -499 -424
525 -543 -426
543 -525 -426
549 -578 -428
578 -549 -428
566 -479 -430
479 -566 -430
525 -553 -432
553 -525 -432
507 -594 -434
594 -507 -434
515 -514 -436
514 -515 -436
455 -582 -438
582 -455 -438
544 -506 -440
506 -544 -440